Problem:    
Rows:       256
Columns:    89 (72 integer, 72 binary)
Non-zeros:  800
Status:     INTEGER OPTIMAL
Objective:  value = 136.661595 (MINimum)

   No.   Row name        Activity     Lower bound   Upper bound
------ ------------    ------------- ------------- -------------
     1 r.5                   136.662             0               
     2 r.6                   52.3592      -983.005               
     3 r.7                   1136.66             0               
     4 r.8                  -947.641      -973.282               
     5 r.9                   1136.66             0               
     6 r.10                  -955.29      -981.843               
     7 r.11                  136.662             0               
     8 r.12                  74.3668      -970.291               
     9 r.13                  1136.66             0               
    10 r.14                 -925.633      -970.343               
    11 r.15                  136.662             0               
    12 r.16                  74.3668      -960.069               
    13 r.17                  136.662             0               
    14 r.18                  44.7098      -984.782               
    15 r.19                  1136.66             0               
    16 r.20                 -974.358      -975.554               
    17 r.21                  1136.66             0               
    18 r.22                 -976.461      -977.656               
    19 r.23                  136.662             0               
    20 r.24                  52.3592       -969.18               
    21 r.25                  1136.66             0               
    22 r.26                 -998.805      -998.805               
    23 r.27                  136.662             0               
    24 r.28                  1.19533      -997.621               
    25 r.29                  136.662             0               
    26 r.30                  136.662      -937.703               
    27 r.31                  1136.66             0               
    28 r.32                 -863.338      -915.698               
    29 r.33                  1136.66             0               
    30 r.34                 -863.338      -937.705               
    31 r.35                  136.662             0               
    32 r.36                  136.662      -915.847               
    33 r.37                        1             1             = 
    34 r.38                        1             1             = 
    35 r.39                        1             1             = 
    36 r.40                        1             1             = 
    37 r.41                        1             1             = 
    38 r.42                        1             1             = 
    39 r.43                        1             1             = 
    40 r.44                        1             1             = 
    41 r.45                     1001             2               
    42 r.46                    -1001         -1001               
    43 r.47                  1992.35      -981.843               
    44 r.48                     1001             2               
    45 r.49                    -1001         -1001               
    46 r.50                  2022.01      -970.291               
    47 r.51                     1001             2               
    48 r.52                    -1001         -1001               
    49 r.53                  2022.01      -970.343               
    50 r.54                     1001             2               
    51 r.55                    -1001         -1001               
    52 r.56                  2022.01      -960.069               
    53 r.57                     1000             2               
    54 r.58                    -1000         -1001               
    55 r.59                  1992.35      -984.782               
    56 r.60                        2             2               
    57 r.61                       -2         -1001               
    58 r.62                 -26.7176      -975.554               
    59 r.63                     1001             2               
    60 r.64                    -1001         -1001               
    61 r.65                  1971.18      -977.656               
    62 r.66                     1001             2               
    63 r.67                    -1001         -1001               
    64 r.68                     2000       -969.18               
    65 r.69                  51.1639      -983.005               
    66 r.70                 -948.836      -973.282               
    67 r.71                  51.1639      -983.005               
    68 r.72                 -948.836      -973.282               
    69 r.73                  84.3024      -937.703               
    70 r.74                 -915.698      -915.698               
    71 r.75                  84.3024      -937.703               
    72 r.76                 -915.698      -915.698               
    73 r.77                     1001             2               
    74 r.78                    -1001         -1001               
    75 r.79                   2084.3      -937.705               
    76 r.80                     1001             2               
    77 r.81                    -1001         -1001               
    78 r.82                   2084.3      -915.847               
    79 r.83                     1001             2               
    80 r.84                    -1001         -1001               
    81 r.85                  2007.65        16.995               
    82 r.86                     1001             2               
    83 r.87                    -1001         -1001               
    84 r.88                  1977.99       26.7176               
    85 r.89                        2             2               
    86 r.90                       -2         -1001               
    87 r.91                 -970.343      -970.343               
    88 r.92                     1000             2               
    89 r.93                    -1000         -1001               
    90 r.94                     2000      -960.069               
    91 r.95                     1001             2               
    92 r.96                    -1001         -1001               
    93 r.97                     2000      -984.782               
    94 r.98                     1001             2               
    95 r.99                    -1001         -1001               
    96 r.100                 1951.27      -975.554               
    97 r.101                       2             2               
    98 r.102                      -2         -1001               
    99 r.103                -21.1704      -977.656               
   100 r.104                    1000             2               
   101 r.105                   -1000         -1001               
   102 r.106                 1977.99       -969.18               
   103 r.107                -956.485      -981.843               
   104 r.108                 73.1714      -970.291               
   105 r.109                -956.485      -981.843               
   106 r.110                 73.1714      -970.291               
   107 r.111                    1001             2               
   108 r.112                   -1001         -1001               
   109 r.113                 2091.95      -937.703               
   110 r.114                    1001             2               
   111 r.115                   -1001         -1001               
   112 r.116                 2062.29      -915.698               
   113 r.117                -908.048      -937.705               
   114 r.118                 91.9518      -915.847               
   115 r.119                -937.705      -937.705               
   116 r.120                 62.2948      -915.847               
   117 r.121                    1001             2               
   118 r.122                   -1001         -1001               
   119 r.123                 1977.99        16.995               
   120 r.124                    1001             2               
   121 r.125                   -1001         -1001               
   122 r.126                 1977.99       26.7176               
   123 r.127                       2             2               
   124 r.128                      -2         -1001               
   125 r.129                 970.343       18.1572               
   126 r.130                    1000             2               
   127 r.131                   -1000         -1001               
   128 r.132                    2000       29.7093               
   129 r.133                -970.343      -970.343               
   130 r.134                 29.6569      -960.069               
   131 r.135                -951.275      -970.343               
   132 r.136                 48.7252      -960.069               
   133 r.137                       2             2               
   134 r.138                      -2         -1001               
   135 r.139                -50.8273      -977.656               
   136 r.140                    1000             2               
   137 r.141                   -1000         -1001               
   138 r.142                 1977.99       -969.18               
   139 r.143                -926.829      -970.343               
   140 r.144                 73.1714      -960.069               
   141 r.145                -926.829      -970.343               
   142 r.146                 73.1714      -960.069               
   143 r.147                    1001             2               
   144 r.148                   -1001         -1001               
   145 r.149                 2062.29      -937.703               
   146 r.150                    1001             2               
   147 r.151                   -1001         -1001               
   148 r.152                 2062.29      -915.698               
   149 r.153                -937.705      -937.705               
   150 r.154                 62.2948      -915.847               
   151 r.155                -937.705      -937.705               
   152 r.156                 62.2948      -915.847               
   153 r.157                    1000             2               
   154 r.158                   -1000         -1001               
   155 r.159                 2007.65        16.995               
   156 r.160                       2             2               
   157 r.161                      -2         -1001               
   158 r.162                 26.7176       26.7176               
   159 r.163                    1001             2               
   160 r.164                   -1001         -1001               
   161 r.165                    2000       18.1572               
   162 r.166                    1001             2               
   163 r.167                   -1001         -1001               
   164 r.168                 2048.73       29.7093               
   165 r.169                    1001             2               
   166 r.170                   -1001         -1001               
   167 r.171                 1978.83      -977.656               
   168 r.172                    1001             2               
   169 r.173                   -1001         -1001               
   170 r.174                 2026.72       -969.18               
   171 r.175                 43.5145      -984.782               
   172 r.176                -975.554      -975.554               
   173 r.177                 43.5145      -984.782               
   174 r.178                -975.554      -975.554               
   175 r.179                    1000             2               
   176 r.180                   -1000         -1001               
   177 r.181                 2091.95      -937.703               
   178 r.182                       2             2               
   179 r.183                      -2         -1001               
   180 r.184                 -888.98      -915.698               
   181 r.185                -908.048      -937.705               
   182 r.186                 91.9518      -915.847               
   183 r.187                 -888.98      -937.705               
   184 r.188                  111.02      -915.847               
   185 r.189                    1001             2               
   186 r.190                   -1001         -1001               
   187 r.191                 2028.82        16.995               
   188 r.192                    1001             2               
   189 r.193                   -1001         -1001               
   190 r.194                    2000       26.7176               
   191 r.195                       2             2               
   192 r.196                      -2         -1001               
   193 r.197                 21.1704       18.1572               
   194 r.198                    1000             2               
   195 r.199                   -1000         -1001               
   196 r.200                 2022.01       29.7093               
   197 r.201                       2             2               
   198 r.202                      -2         -1001               
   199 r.203                 50.8273       29.6569               
   200 r.204                    1000             2               
   201 r.205                   -1000         -1001               
   202 r.206                 2022.01       39.9312               
   203 r.207                    1001             2               
   204 r.208                   -1001         -1001               
   205 r.209                 2021.17       15.2175               
   206 r.210                    1001             2               
   207 r.211                   -1001         -1001               
   208 r.212                 1973.28       24.4462               
   209 r.213                -977.656      -977.656               
   210 r.214                 51.1639       -969.18               
   211 r.215                -977.656      -977.656               
   212 r.216                 51.1639       -969.18               
   213 r.217                 113.122      -937.703               
   214 r.218                -886.878      -915.698               
   215 r.219                 84.3024      -937.703               
   216 r.220                -915.698      -915.698               
   217 r.221                -886.878      -937.705               
   218 r.222                 113.122      -915.847               
   219 r.223                -915.698      -937.705               
   220 r.224                 84.3024      -915.847               
   221 r.225                    1001             2               
   222 r.226                   -1001         -1001               
   223 r.227                 1908.05       18.1572               
   224 r.228                    1001             2               
   225 r.229                   -1001         -1001               
   226 r.230                 1937.71       29.7093               
   227 r.231                    1001             2               
   228 r.232                   -1001         -1001               
   229 r.233                 1937.71       29.6569               
   230 r.234                    1001             2               
   231 r.235                   -1001         -1001               
   232 r.236                 1937.71       39.9312               
   233 r.237                    1000             2               
   234 r.238                   -1000         -1001               
   235 r.239                 1908.05       15.2175               
   236 r.240                       2             2               
   237 r.241                      -2         -1001               
   238 r.242                  888.98       24.4462               
   239 r.243                    1001             2               
   240 r.244                   -1001         -1001               
   241 r.245                    2000      -937.705               
   242 r.246                    1001             2               
   243 r.247                   -1001         -1001               
   244 r.248                    2000      -915.847               
   245 r.249                    1001             2               
   246 r.250                   -1001         -1001               
   247 r.251                  1915.7        16.995               
   248 r.252                    1001             2               
   249 r.253                   -1001         -1001               
   250 r.254                  1915.7       26.7176               
   251 r.255                    1001             2               
   252 r.256                   -1001         -1001               
   253 r.257                    2000       62.2968               
   254 r.258                    1001             2               
   255 r.259                   -1001         -1001               
   256 r.260                    2000       84.3024               

   No. Column name       Activity     Lower bound   Upper bound
------ ------------    ------------- ------------- -------------
     1 tt                    136.662             0               
     2 s_1_1        *              0             0             1 
     3 t_1_1                 84.3024             0               
     4 s_1_7        *              0             0             1 
     5 s_2_1        *              1             0             1 
     6 t_2_1                 84.3024             0               
     7 s_2_7        *              1             0             1 
     8 s_1_2        *              1             0             1 
     9 t_1_2                 91.9518             0               
    10 s_1_8        *              1             0             1 
    11 s_2_2        *              0             0             1 
    12 t_2_2                 62.2948             0               
    13 s_2_8        *              0             0             1 
    14 s_1_3        *              1             0             1 
    15 t_1_3                 62.2948             0               
    16 s_2_3        *              0             0             1 
    17 t_2_3                 62.2948             0               
    18 s_1_4        *              0             0             1 
    19 t_1_4                 91.9518             0               
    20 s_2_4        *              1             0             1 
    21 t_2_4                  111.02             0               
    22 s_1_5        *              1             0             1 
    23 t_1_5                 113.122             0               
    24 s_2_5        *              0             0             1 
    25 t_2_5                 84.3024             0               
    26 s_1_6        *              1             0             1 
    27 t_1_6                 135.466             0               
    28 s_2_6        *              0             0             1 
    29 t_2_6                 135.466             0               
    30 t_1_7                       0             0               
    31 t_2_7                       0             0               
    32 t_1_8                       0             0               
    33 t_2_8                       0             0               
    34 r_1_1_2      *              1             0             1 
    35 u_1_1_2      *              0             0             1 
    36 r_2_1_2      *              1             0             1 
    37 u_2_1_2      *              0             0             1 
    38 r_1_1_3      *              1             0             1 
    39 u_1_1_3      *              0             0             1 
    40 r_2_1_3      *              1             0             1 
    41 u_2_1_3      *              0             0             1 
    42 r_1_1_4      *              1             0             1 
    43 u_1_1_4      *              0             0             1 
    44 r_2_1_4      *              0             0             1 
    45 u_2_1_4      *              0             0             1 
    46 r_1_1_5      *              1             0             1 
    47 u_1_1_5      *              0             0             1 
    48 r_2_1_5      *              1             0             1 
    49 u_2_1_5      *              0             0             1 
    50 r_1_1_8      *              1             0             1 
    51 u_1_1_8      *              0             0             1 
    52 r_2_1_8      *              1             0             1 
    53 u_2_1_8      *              0             0             1 
    54 r_1_2_3      *              0             0             1 
    55 u_1_2_3      *              1             0             1 
    56 r_2_2_3      *              1             0             1 
    57 u_2_2_3      *              0             0             1 
    58 r_1_2_4      *              1             0             1 
    59 u_1_2_4      *              0             0             1 
    60 r_2_2_4      *              1             0             1 
    61 u_2_2_4      *              0             0             1 
    62 r_1_2_5      *              0             0             1 
    63 u_1_2_5      *              0             0             1 
    64 r_2_2_5      *              1             0             1 
    65 u_2_2_5      *              0             0             1 
    66 r_1_2_7      *              1             0             1 
    67 u_1_2_7      *              0             0             1 
    68 r_2_2_7      *              1             0             1 
    69 u_2_2_7      *              0             0             1 
    70 r_1_3_5      *              0             0             1 
    71 u_1_3_5      *              0             0             1 
    72 r_2_3_5      *              1             0             1 
    73 u_2_3_5      *              0             0             1 
    74 r_1_3_7      *              1             0             1 
    75 u_1_3_7      *              0             0             1 
    76 r_2_3_7      *              1             0             1 
    77 u_2_3_7      *              0             0             1 
    78 r_1_4_5      *              1             0             1 
    79 u_1_4_5      *              0             0             1 
    80 r_2_4_5      *              1             0             1 
    81 u_2_4_5      *              0             0             1 
    82 r_1_4_7      *              1             0             1 
    83 u_1_4_7      *              0             0             1 
    84 r_2_4_7      *              0             0             1 
    85 u_2_4_7      *              1             0             1 
    86 r_1_7_8      *              1             0             1 
    87 u_1_7_8      *              0             0             1 
    88 r_2_7_8      *              1             0             1 
    89 u_2_7_8      *              0             0             1 

Integer feasibility conditions:

KKT.PE: max.abs.err = 4.55e-13 on row 43
        max.rel.err = 1.10e-16 on row 96
        High quality

KKT.PB: max.abs.err = 1.14e-13 on row 22
        max.rel.err = 1.21e-16 on row 149
        High quality

End of output
